Problem:    parte
Rows:       22
Columns:    15 (15 integer, 0 binary)
Non-zeros:  70
Status:     INTEGER OPTIMAL
Objective:  Beneficio_Total = 26190 (MAXimum)

   No.   Row name        Activity     Lower bound   Upper bound
------ ------------    ------------- ------------- -------------
     1 Beneficio_Total
                               26190                             
     2 Max_Asientos[AV1]
                                  90                          90 
     3 Max_Asientos[AV2]
                                 120                         120 
     4 Max_Asientos[AV3]
                                 200                         200 
     5 Max_Asientos[AV4]
                                 150                         150 
     6 Max_Asientos[AV5]
                                 190                         190 
     7 Max_Peso[AV1]
                                1699                        1700 
     8 Max_Peso[AV2]
                                2698                        2700 
     9 Max_Peso[AV3]
                                1300                        1300 
    10 Max_Peso[AV4]
                                1700                        1700 
    11 Max_Peso[AV5]
                                1993                        2000 
    12 Min_Leisure_Plus[AV1]
                                  58            20               
    13 Min_Leisure_Plus[AV2]
                                  31            20               
    14 Min_Leisure_Plus[AV3]
                                  23            20               
    15 Min_Leisure_Plus[AV4]
                                  20            20               
    16 Min_Leisure_Plus[AV5]
                                  21            20               
    17 Min_Business_Plus[AV1]
                                  13            10               
    18 Min_Business_Plus[AV2]
                                  51            10               
    19 Min_Business_Plus[AV3]
                                  17            10               
    20 Min_Business_Plus[AV4]
                                  30            10               
    21 Min_Business_Plus[AV5]
                                  36            10               
    22 Min_Estandar                0            -0               

   No. Column name       Activity     Lower bound   Upper bound
------ ------------    ------------- ------------- -------------
     1 x[estandar,AV1]
                    *             19             0               
     2 x[estandar,AV2]
                    *             38             0               
     3 x[estandar,AV3]
                    *            160             0               
     4 x[estandar,AV4]
                    *            100             0               
     5 x[estandar,AV5]
                    *            133             0               
     6 x[leisure,AV1]
                    *             58             0               
     7 x[leisure,AV2]
                    *             31             0               
     8 x[leisure,AV3]
                    *             23             0               
     9 x[leisure,AV4]
                    *             20             0               
    10 x[leisure,AV5]
                    *             21             0               
    11 x[business,AV1]
                    *             13             0               
    12 x[business,AV2]
                    *             51             0               
    13 x[business,AV3]
                    *             17             0               
    14 x[business,AV4]
                    *             30             0               
    15 x[business,AV5]
                    *             36             0               

Integer feasibility conditions:

KKT.PE: max.abs.err = 2.84e-14 on row 22
        max.rel.err = 7.87e-17 on row 22
        High quality

KKT.PB: max.abs.err = 0.00e+00 on row 0
        max.rel.err = 0.00e+00 on row 0
        High quality

End of output
